n = 16;

R =
[|0,0,0,1,0,0,0,0,2,2,0,0,0,0,0,0,
 |0,0,2,4,0,0,0,0,0,0,0,0,0,0,0,0,
 |0,0,2,4,0,2,5,0,0,0,0,4,4,4,4,0,
 |0,0,0,4,0,2,5,0,0,0,0,0,0,2,2,1,
 |0,0,0,4,0,0,5,0,0,5,5,5,5,5,0,0,
 |0,6,0,0,6,0,5,3,3,3,0,0,5,0,0,0,
 |0,6,0,0,6,0,5,0,0,0,0,4,5,0,6,0,
 |0,6,0,0,6,8,5,0,1,0,0,4,5,0,6,3,
 |0,6,0,0,6,8,5,6,0,0,6,4,5,6,6,3,
 |0,6,5,4,6,8,5,6,1,0,6,4,5,6,6,3,
 |0,6,5,4,6,8,5,6,0,0,6,0,0,6,6,0,
 |0,0,5,4,0,8,5,6,0,0,6,0,3,6,6,0,
 |0,0,5,4,0,8,0,6,0,0,6,0,3,6,0,0,
 |0,0,5,0,2,8,0,6,1,0,6,0,3,6,0,2,
 |0,0,0,0,2,8,0,0,3,3,3,0,0,0,0,2,
 |0,0,0,0,0,0,0,5,5,5,5,5,0,0,0,0,
 |];

